# Solution for model problem_
# Objective value = 20401.9328115586
x(0_0) 0
x(0_1) 0
x(0_2) 0
x(0_3) 1
x(0_4) 0
x(0_5) 0
x(0_6) 0
x(0_7) 0
x(0_8) 0
x(0_9) 0
x(0_10) 0
x(0_11) 0
x(0_12) 0
x(0_13) 0
x(0_14) 0
x(0_15) 0
x(1_16) 0
x(1_17) 0
x(1_18) 0
x(1_19) 0
x(1_20) 0
x(1_21) 0
x(1_22) 0
x(1_23) 0
x(1_24) 0
x(1_25) 0
x(1_26) 0
x(1_27) 0
x(1_28) 0
x(1_29) 0
x(1_30) 0
x(1_31) 0
x(1_32) 0
x(1_33) 1
x(2_34) 0
x(2_35) 0
x(2_36) 0
x(2_37) 0
x(2_38) 0
x(2_39) 0
x(2_40) 0
x(2_41) 1
x(2_42) 0
x(2_43) 0
x(2_44) 0
x(2_45) 0
x(2_46) 0
x(2_47) 0
x(2_48) 0
x(2_49) 0
x(2_50) 0
x(2_51) 0
x(3_52) 0
x(3_53) 0
x(3_54) 0
x(3_55) 0
x(3_56) 0
x(3_57) 0
x(3_58) 0
x(3_59) 0
x(3_60) 0
x(3_61) 0
x(3_62) 0
x(3_63) 1
x(3_64) 0
x(3_65) 0
x(3_66) 0
x(4_67) 0
x(4_68) 0
x(4_69) 0
x(4_70) 0
x(4_71) 0
x(4_72) 1
x(4_73) 0
x(4_74) 0
x(4_75) 0
x(4_76) 0
x(4_77) 0
x(4_78) 0
x(4_79) 0
x(4_80) 0
x(4_81) 0
x(5_82) 0
x(5_83) 0
x(5_84) 0
x(5_85) 0
x(5_86) 0
x(5_87) 0
x(5_88) 1
x(5_89) 0
x(5_90) 0
x(5_91) 0
x(5_92) 0
x(6_93) 0
x(6_94) 0
x(6_95) 0
x(6_96) 0
x(6_97) 0
x(6_98) 0
x(6_99) 0
x(6_100) 0
x(6_101) 0
x(6_102) 0
x(6_103) 0
x(6_104) 0
x(6_105) 0
x(6_106) 0
x(6_107) 1
x(7_108) 0
x(7_109) 0
x(7_110) 0
x(7_111) 0
x(7_112) 1
x(7_113) 0
x(7_114) 0
x(7_115) 0
x(7_116) 0
x(7_117) 0
x(7_118) 0
x(7_119) 0
x(7_120) 0
x(7_121) 0
x(7_122) 0
x(7_123) 0
x(7_124) 0
x(7_125) 0
x(7_126) 0
x(7_127) 0
x(8_128) 0
x(8_129) 0
x(8_130) 0
x(8_131) 0
x(8_132) 0
x(8_133) 0
x(8_134) 0
x(8_135) 1
x(8_136) 0
x(8_137) 0
x(8_138) 0
x(8_139) 0
x(8_140) 0
x(8_141) 0
x(8_142) 0
x(8_143) 0
x(8_144) 0
x(8_145) 0
x(8_146) 0
x(9_147) 0
x(9_148) 0
x(9_149) 0
x(9_150) 0
x(9_151) 0
x(9_152) 0
x(9_153) 0
x(9_154) 0
x(9_155) 0
x(9_156) 0
x(9_157) 0
x(9_158) 1
x(9_159) 0
x_1_0 3.6654513120651245e+01
s_1_0 0
z_1_0 0
x_1_1 3.7956895589828491e+01
s_1_1 0
z_1_1 0
x_1_2 3.7768776416778564e+01
s_1_2 0
z_1_2 0
x_1_3 0
s_1_3 4.6907958853989840e-01
z_1_3 1
x_1_4 3.7928399324417114e+01
s_1_4 0
z_1_4 0
x_1_5 0
s_1_5 4.4739696150645614e-01
z_1_5 1
x_1_6 0
s_1_6 5.1457285857759416e-01
z_1_6 1
x_1_7 3.7824244737625122e+01
s_1_7 0
z_1_7 0
x_1_8 3.7602170944213867e+01
s_1_8 0
z_1_8 0
x_1_9 3.8187053680419922e+01
s_1_9 0
z_1_9 0
x_1_10 0
s_1_10 0.635890674777329
z_1_10 1
x_1_11 3.8073462963104248e+01
s_1_11 0
z_1_11 0
x_1_12 3.7946196794509888e+01
s_1_12 0
z_1_12 0
x_1_13 3.7860039710998535e+01
s_1_13 0
z_1_13 0
x_1_14 3.8250060319900513e+01
s_1_14 0
z_1_14 0
x_1_15 0
s_1_15 4.6415852988138795e-01
z_1_15 1
x_1_16 3.7488066196441650e+01
s_1_16 0
z_1_16 0
x_1_17 3.7884465932846069e+01
s_1_17 0
z_1_17 0
x_1_18 3.7667937517166138e+01
s_1_18 0
z_1_18 0
x_1_19 3.7643733739852905e+01
s_1_19 0
z_1_19 0
x_1_20 3.7486074209213257e+01
s_1_20 0
z_1_20 0
x_1_21 0
s_1_21 2.4297170247882605e-01
z_1_21 1
x_1_22 3.8464100837707520e+01
s_1_22 0
z_1_22 0
x_1_23 3.7842596769332886e+01
s_1_23 0
z_1_23 0
x_1_24 0
s_1_24 4.1860796883702278e-01
z_1_24 1
x_1_25 3.8409528970718384e+01
s_1_25 0
z_1_25 0
x_1_26 3.8021235942840576e+01
s_1_26 0
z_1_26 0
x_1_27 3.7586631059646606e+01
s_1_27 0
z_1_27 0
x_1_28 3.7667296886444092e+01
s_1_28 0
z_1_28 0
x_1_29 3.7317977428436279e+01
s_1_29 0
z_1_29 0
x_1_30 3.7896076440811157e+01
s_1_30 0
z_1_30 0
x_1_31 3.8055567264556885e+01
s_1_31 0
z_1_31 0
x_1_32 0
s_1_32 1.4938598906155676e-01
z_1_32 1
x_1_33 37.8333785533905
s_1_33 0
z_1_33 0
x_1_34 3.7714417219161987e+01
s_1_34 0
z_1_34 0
x_1_35 3.7801642179489136e+01
s_1_35 0
z_1_35 0
x_1_36 3.8488402366638184e+01
s_1_36 0
z_1_36 0
x_1_37 0
s_1_37 3.5971558932214975e-01
z_1_37 1
x_1_38 3.8221507310867310e+01
s_1_38 0
z_1_38 0
x_1_39 3.7818307399749756e+01
s_1_39 0
z_1_39 0
x_1_40 0
s_1_40 5.1111256467993371e-01
z_1_40 1
x_1_41 3.8143805980682373e+01
s_1_41 0
z_1_41 0
x_1_42 0
s_1_42 5.9505274891853333e-01
z_1_42 1
x_1_43 3.7665242195129395e+01
s_1_43 0
z_1_43 0
x_1_44 3.8630343437194824e+01
s_1_44 0
z_1_44 0
x_1_45 0
s_1_45 4.0514423366403207e-01
z_1_45 1
x_1_46 3.8010889053344727e+01
s_1_46 0
z_1_46 0
x_1_47 3.8004375696182251e+01
s_1_47 0
z_1_47 0
x_1_48 0
s_1_48 2.3129155719652772e-01
z_1_48 1
x_1_49 3.8313472509384155e+01
s_1_49 0
z_1_49 0
x_1_50 3.7937125444412231e+01
s_1_50 0
z_1_50 0
x_1_51 0
s_1_51 7.4285174626857042e-01
z_1_51 1
x_1_52 3.8193405151367188e+01
s_1_52 0
z_1_52 0
x_1_53 3.8045174360275269e+01
s_1_53 0
z_1_53 0
x_1_54 0
s_1_54 4.1682258155196905e-01
z_1_54 1
x_1_55 3.7826862812042236e+01
s_1_55 0
z_1_55 0
x_1_56 0
s_1_56 4.4968699291348457e-01
z_1_56 1
x_1_57 0
s_1_57 2.0239147823303938e-01
z_1_57 1
x_1_58 3.8160527944564819e+01
s_1_58 0
z_1_58 0
x_1_59 0
s_1_59 3.4890768863260746e-01
z_1_59 1
x_1_60 0
s_1_60 5.9672745666466653e-01
z_1_60 1
x_1_61 3.7735981702804565e+01
s_1_61 0
z_1_61 0
x_1_62 3.8284691095352173e+01
s_1_62 0
z_1_62 0
x_1_63 3.8129228115081787e+01
s_1_63 0
z_1_63 0
x_1_64 3.7211283922195435e+01
s_1_64 0
z_1_64 0
x_1_65 3.8305489301681519e+01
s_1_65 0
z_1_65 0
x_1_66 3.8287377119064331e+01
s_1_66 0
z_1_66 0
x_1_67 0
s_1_67 5.2476321952417493e-01
z_1_67 1
x_1_68 3.7717957019805908e+01
s_1_68 0
z_1_68 0
x_1_69 0
s_1_69 5.0906754098832607e-01
z_1_69 1
x_1_70 3.7949214935302734e+01
s_1_70 0
z_1_70 0
x_1_71 3.7694997787475586e+01
s_1_71 0
z_1_71 0
x_1_72 3.7129049777984619e+01
s_1_72 0
z_1_72 0
x_1_73 3.8151568889617920e+01
s_1_73 0
z_1_73 0
x_1_74 3.7633602857589722e+01
s_1_74 0
z_1_74 0
x_1_75 0
s_1_75 4.6867108345031738e-01
z_1_75 1
x_1_76 3.8059887409210205e+01
s_1_76 0
z_1_76 0
x_1_77 3.7786033391952515e+01
s_1_77 0
z_1_77 0
x_1_78 0
s_1_78 3.7803700240328908e-01
z_1_78 1
x_1_79 0
s_1_79 0.0441815834492445
z_1_79 1
x_1_80 3.7834402799606323e+01
s_1_80 0
z_1_80 0
x_1_81 0
s_1_81 3.5986978560686111e-01
z_1_81 1
x_1_82 38.4792742729187
s_1_82 0
z_1_82 0
x_1_83 3.7518101215362549e+01
s_1_83 0
z_1_83 0
x_1_84 0
s_1_84 4.4664290780201554e-01
z_1_84 1
x_1_85 0
s_1_85 0.545777871273458
z_1_85 1
x_1_86 37.7709698677063
s_1_86 0
z_1_86 0
x_1_87 3.8151458740234375e+01
s_1_87 0
z_1_87 0
x_1_88 37.7477490901947
s_1_88 0
z_1_88 0
x_1_89 0
s_1_89 3.0271469369108672e-01
z_1_89 1
x_1_90 3.7925569534301758e+01
s_1_90 0
z_1_90 0
x_1_91 3.8005312442779541e+01
s_1_91 0
z_1_91 0
x_1_92 3.7969462871551514e+01
s_1_92 0
z_1_92 0
x_1_93 3.8371428728103638e+01
s_1_93 0
z_1_93 0
x_1_94 3.7876076698303223e+01
s_1_94 0
z_1_94 0
x_1_95 3.8294519662857056e+01
s_1_95 0
z_1_95 0
x_1_96 0
s_1_96 2.1317143167834729e-01
z_1_96 1
x_1_97 0
s_1_97 1.2768434960162267e-01
z_1_97 1
x_1_98 3.8348355770111084e+01
s_1_98 0
z_1_98 0
x_1_99 3.8423045635223389e+01
s_1_99 0
z_1_99 0
x_1_100 3.8164414167404175e+01
s_1_100 0
z_1_100 0
x_1_101 3.8034595966339111e+01
s_1_101 0
z_1_101 0
x_1_102 3.7607309103012085e+01
s_1_102 0
z_1_102 0
x_1_103 3.7838870525360107e+01
s_1_103 0
z_1_103 0
x_1_104 3.8410771846771240e+01
s_1_104 0
z_1_104 0
x_1_105 0
s_1_105 4.4129406381398439e-01
z_1_105 1
x_1_106 3.7156194925308228e+01
s_1_106 0
z_1_106 0
x_1_107 3.7903401136398315e+01
s_1_107 0
z_1_107 0
x_1_108 3.7873291254043579e+01
s_1_108 0
z_1_108 0
x_1_109 3.8011481761932373e+01
s_1_109 0
z_1_109 0
x_1_110 3.8449551582336426e+01
s_1_110 0
z_1_110 0
x_1_111 0
s_1_111 2.5644062459468842e-01
z_1_111 1
x_1_112 3.7982557535171509e+01
s_1_112 0
z_1_112 0
x_1_113 3.8201873779296875e+01
s_1_113 0
z_1_113 0
x_1_114 3.8321645736694336e+01
s_1_114 0
z_1_114 0
x_1_115 3.8176620721817017e+01
s_1_115 0
z_1_115 0
x_1_116 3.8060498476028442e+01
s_1_116 0
z_1_116 0
x_1_117 3.8460900068283081e+01
s_1_117 0
z_1_117 0
x_1_118 0
s_1_118 3.7649286189116538e-01
z_1_118 1
x_1_119 3.7999307632446289e+01
s_1_119 0
z_1_119 0
x_1_120 0
s_1_120 4.2572303209453821e-01
z_1_120 1
x_1_121 3.7849056005477905e+01
s_1_121 0
z_1_121 0
x_1_122 37.942955493927
s_1_122 0
z_1_122 0
x_1_123 3.8227721929550171e+01
s_1_123 0
z_1_123 0
x_1_124 3.8192727565765381e+01
s_1_124 0
z_1_124 0
x_1_125 0
s_1_125 4.1214290261268616e-01
z_1_125 1
x_1_126 3.7968291282653809e+01
s_1_126 0
z_1_126 0
x_1_127 0
s_1_127 3.0625171435531229e-01
z_1_127 1
x_1_128 38.132164478302
s_1_128 0
z_1_128 0
x_1_129 0
s_1_129 2.5234270282089710e-01
z_1_129 1
x_1_130 3.7323573350906372e+01
s_1_130 0
z_1_130 0
x_1_131 3.7472907304763794e+01
s_1_131 0
z_1_131 0
x_1_132 0
s_1_132 6.0093304840847850e-01
z_1_132 1
x_1_133 3.7998322486877441e+01
s_1_133 0
z_1_133 0
x_1_134 3.8518183469772339e+01
s_1_134 0
z_1_134 0
x_1_135 3.7840021848678589e+01
s_1_135 0
z_1_135 0
x_1_136 3.7165772438049316e+01
s_1_136 0
z_1_136 0
x_1_137 3.8306235074996948e+01
s_1_137 0
z_1_137 0
x_1_138 3.6831174850463867e+01
s_1_138 0
z_1_138 0
x_1_139 38.2845253944397
s_1_139 0
z_1_139 0
x_1_140 3.7648482322692871e+01
s_1_140 0
z_1_140 0
x_1_141 3.7971975088119507e+01
s_1_141 0
z_1_141 0
x_1_142 0
s_1_142 3.5361500177532434e-01
z_1_142 1
x_1_143 0
s_1_143 2.1691713319160044e-01
z_1_143 1
x_1_144 0
s_1_144 4.3082363903522491e-01
z_1_144 1
x_1_145 0
s_1_145 3.6849205708131194e-01
z_1_145 1
x_1_146 3.8196291446685791e+01
s_1_146 0
z_1_146 0
x_1_147 37.9948205947876
s_1_147 0
z_1_147 0
x_1_148 0
s_1_148 5.0808157492429018e-01
z_1_148 1
x_1_149 3.7936248064041138e+01
s_1_149 0
z_1_149 0
x_1_150 3.7909664392471313e+01
s_1_150 0
z_1_150 0
x_1_151 3.8230448484420776e+01
s_1_151 0
z_1_151 0
x_1_152 3.7175178289413452e+01
s_1_152 0
z_1_152 0
x_1_153 38.4141001701355
s_1_153 0
z_1_153 0
x_1_154 0
s_1_154 3.3696441398933530e-01
z_1_154 1
x_1_155 3.8293115615844727e+01
s_1_155 0
z_1_155 0
x_1_156 0
s_1_156 5.7520820433273911e-01
z_1_156 1
x_1_157 3.8172573089599609e+01
s_1_157 0
z_1_157 0
x_1_158 0
s_1_158 4.8717258684337139e-01
z_1_158 1
x_1_159 3.7317338943481445e+01
s_1_159 0
z_1_159 0
x_2_0 20163.5008115586
